100
30
1
6
12
7
13
6
11
32
5
5
31
19
3
1
7
32
20
11
32
8
21
14
32
24
6
10
32
30
7
8
2
8
3
19
4
4
3
1
32
15
3
6
4
2
31
32
23
23
3
1
3
31
23
31
8
30
22
1
31
7
4
19
6
10
2
31
17
17
22
13
7
28
31
32
19
16
13
2
32
31
5
27
19
3
1
2
2
4
4
3
3
3
1
10
20
2
8
20
18
11